Problem:    
Rows:       358
Columns:    211 (211 integer, 159 binary)
Non-zeros:  1059
Status:     INTEGER OPTIMAL
Objective:  obj = 20480 (MINimum)

   No.   Row name        Activity     Lower bound   Upper bound
------ ------------    ------------- ------------- -------------
     1 r.4                         1             1             = 
     2 r.5                         1             1             = 
     3 r.6                         1             1             = 
     4 r.7                         1             1             = 
     5 r.8                         1             1             = 
     6 r.9                         1             1             = 
     7 r.10                        1             1             = 
     8 r.11                        1             1             = 
     9 r.12                        1             1             = 
    10 r.13                        1             1             = 
    11 r.14                        1             1             = 
    12 r.15                        1             1             = 
    13 r.16                        1             1             = 
    14 r.17                        1             1             = 
    15 r.18                        1             1             = 
    16 r.19                        1             1             = 
    17 r.20                        1             1             = 
    18 r.21                        1             1             = 
    19 r.22                        1             1             = 
    20 r.23                        1             1             = 
    21 r.24                        1             1             = 
    22 r.25                        1             1             = 
    23 r.26                        1             1             = 
    24 r.27                        1             1             = 
    25 r.28                        1             1             = 
    26 r.29                        1             1             = 
    27 r.30                        1             1             = 
    28 r.31                        1             1             = 
    29 r.32                        1             1             = 
    30 r.33                        1             1             = 
    31 r.34                        1             1             = 
    32 r.35                        1             1             = 
    33 r.36                        1             1             = 
    34 r.37                        1             1             = 
    35 r.38                        1             1             = 
    36 r.39                        1             1             = 
    37 r.40                        1             1             = 
    38 r.41                        1             1             = 
    39 r.42                        1             1             = 
    40 r.43                        1             1             = 
    41 r.44                        1             1             = 
    42 r.45                        1             1             = 
    43 r.46                        1             1             = 
    44 r.47                        1             1             = 
    45 r.48                        1             1             = 
    46 r.49                        1             1             = 
    47 r.50                        1             1             = 
    48 r.51                        1             1             = 
    49 r.52                        1             1             = 
    50 r.53                        1             1             = 
    51 r.54                        1             1             = 
    52 r.55                        1             1             = 
    53 r.56                        1             1             = 
    54 r.57                        1             1             = 
    55 r.58                        1             1             = 
    56 r.59                        1             1             = 
    57 r.60                        1             1             = 
    58 r.61                        1             1             = 
    59 r.62                        1             1             = 
    60 r.63                        1             1             = 
    61 r.64                        1             1             = 
    62 r.65                        1             1             = 
    63 r.66                        1             1             = 
    64 r.67                        1             1             = 
    65 r.68                        1             1             = 
    66 r.69                        1             1             = 
    67 r.70                        1             1             = 
    68 r.71                        1             1             = 
    69 r.72                        1             1             = 
    70 r.73                        1             1             = 
    71 r.74                        1             1             = 
    72 r.75                        1             1             = 
    73 r.76                        1             1             = 
    74 r.77                        1             1             = 
    75 r.78                        1             1             = 
    76 r.79                        1             1             = 
    77 r.80                        1             1             = 
    78 r.81                        1             1             = 
    79 r.82                        1             1             = 
    80 r.83                        1             1             = 
    81 r.84                        1             1             = 
    82 r.85                        1             1             = 
    83 r.86                        1             1             = 
    84 r.87                        1             1             = 
    85 r.88                        1             1             = 
    86 r.89                        1             1             = 
    87 r.90                        1             1             = 
    88 r.91                        1             1             = 
    89 r.92                        1             1             = 
    90 r.93                        1             1             = 
    91 r.94                        0             0             = 
    92 r.95                        0             0             = 
    93 r.96                        0             0             = 
    94 r.97                        0             0             = 
    95 r.98                        0             0             = 
    96 r.99                        0             0             = 
    97 r.100                       0             0             = 
    98 r.101                       0             0             = 
    99 r.102                       0             0             = 
   100 r.103                       0             0             = 
   101 r.104                       2                          10 
   102 r.105                       3                          10 
   103 r.106                       5                          10 
   104 r.107                       1                          10 
   105 r.108                       9                          10 
   106 r.109                       4                          10 
   107 r.110                      10                          10 
   108 r.111                       1                          10 
   109 r.112                       3                          10 
   110 r.113                      10                          10 
   111 r.114                       7                          10 
   112 r.115                       2                          10 
   113 r.116                       8                          10 
   114 r.117                       2                          10 
   115 r.118                       9                          10 
   116 r.119                       6                          10 
   117 r.120                       1                          10 
   118 r.121                       7                          10 
   119 r.122                       4                          10 
   120 r.123                      10                          10 
   121 r.124                       8                          10 
   122 r.125                       5                          10 
   123 r.126                       7                          10 
   124 r.127                       8                          10 
   125 r.128                      10                          10 
   126 r.129                       6                          10 
   127 r.130                       3                          10 
   128 r.131                       1                          10 
   129 r.132                       9                          10 
   130 r.133                       4                          10 
   131 r.134                       4                          10 
   132 r.135                       6                          10 
   133 r.136                       7                          10 
   134 r.137                       9                          10 
   135 r.138                       5                          10 
   136 r.139                       2                          10 
   137 r.140                       8                          10 
   138 r.141                       3                          10 
   139 r.142                       8                          10 
   140 r.143                       5                          10 
   141 r.144                       4                          10 
   142 r.145                       6                          10 
   143 r.146                       2                          10 
   144 r.147                      10                          10 
   145 r.148                       5                          10 
   146 r.149                      -2                          -1 
   147 r.150                      -3                          -1 
   148 r.151                      -5                          -1 
   149 r.152                      -1                          -1 
   150 r.153                      -9                          -1 
   151 r.154                      -4                          -1 
   152 r.155                     -10                          -1 
   153 r.156                      -1                          -1 
   154 r.157                      -3                          -1 
   155 r.158                     -10                          -1 
   156 r.159                      -7                          -1 
   157 r.160                      -2                          -1 
   158 r.161                      -8                          -1 
   159 r.162                      -2                          -1 
   160 r.163                      -9                          -1 
   161 r.164                      -6                          -1 
   162 r.165                      -1                          -1 
   163 r.166                      -7                          -1 
   164 r.167                      -4                          -1 
   165 r.168                     -10                          -1 
   166 r.169                      -8                          -1 
   167 r.170                      -5                          -1 
   168 r.171                      -7                          -1 
   169 r.172                      -8                          -1 
   170 r.173                     -10                          -1 
   171 r.174                      -6                          -1 
   172 r.175                      -3                          -1 
   173 r.176                      -1                          -1 
   174 r.177                      -9                          -1 
   175 r.178                      -4                          -1 
   176 r.179                      -4                          -1 
   177 r.180                      -6                          -1 
   178 r.181                      -7                          -1 
   179 r.182                      -9                          -1 
   180 r.183                      -5                          -1 
   181 r.184                      -2                          -1 
   182 r.185                      -8                          -1 
   183 r.186                      -3                          -1 
   184 r.187                      -8                          -1 
   185 r.188                      -5                          -1 
   186 r.189                      -4                          -1 
   187 r.190                      -6                          -1 
   188 r.191                      -2                          -1 
   189 r.192                     -10                          -1 
   190 r.193                      -5                          -1 
   191 r.194                    7168             0               
   192 r.195                    4096             0               
   193 r.196                    1024             0               
   194 r.197                    3072             0               
   195 r.198                       0             0               
   196 r.199                    3072             0               
   197 r.200                   11264             0               
   198 r.201                   18432             0               
   199 r.202                    7168             0               
   200 r.203                    3072             0               
   201 r.204                       0                           0 
   202 r.205                       0                           0 
   203 r.206                       0                           0 
   204 r.207                       0                           0 
   205 r.208                      -1                           0 
   206 r.209                       0                           0 
   207 r.210                       0                           0 
   208 r.211                       0                           0 
   209 r.212                      -1                           0 
   210 r.213                      -1                           0 
   211 r.214                       0                           0 
   212 r.215                       0                           0 
   213 r.216                      -1                           0 
   214 r.217                      -1                           0 
   215 r.218                       0                           0 
   216 r.219                       0                           0 
   217 r.220                       0                           0 
   218 r.221                      -1                           0 
   219 r.222                      -1                           0 
   220 r.223                      -1                           0 
   221 r.224                       0                           0 
   222 r.225                      -1                           0 
   223 r.226                      -1                           0 
   224 r.227                       0                           0 
   225 r.228                       0                           0 
   226 r.229                       0                           0 
   227 r.230                      -1                           0 
   228 r.231                      -1                           0 
   229 r.232                      -1                           0 
   230 r.233                      -1                           0 
   231 r.234                      -1                           0 
   232 r.235                      -1                           0 
   233 r.236                       0                           0 
   234 r.237                       0                           0 
   235 r.238                      -1                           0 
   236 r.239                      -1                           0 
   237 r.240                      -1                           0 
   238 r.241                       0                           0 
   239 r.242                       0                           0 
   240 r.243                       0                           0 
   241 r.244                      -1                           0 
   242 r.245                       0                           0 
   243 r.246                       0                           0 
   244 r.247                       0                           0 
   245 r.248                      -1                           0 
   246 r.249                       0                           0 
   247 r.250                       0                           0 
   248 r.251                       0                           0 
   249 r.252                       0                           0 
   250 r.253                       0                           0 
   251 r.254                       0                           0 
   252 r.255                       0                           0 
   253 r.256                       0                           0 
   254 r.257                       0                           0 
   255 r.258                       0                           0 
   256 r.259                      -1            -1               
   257 r.260                       0            -1               
   258 r.261                       0            -1               
   259 r.262                      -1            -1               
   260 r.263                       0            -1               
   261 r.264                      -1                           0 
   262 r.265                       0                           0 
   263 r.266                      -1            -1               
   264 r.267                       0            -1               
   265 r.268                       0            -1               
   266 r.269                      -1            -1               
   267 r.270                       0            -1               
   268 r.271                      -1                           0 
   269 r.272                      -1                           0 
   270 r.273                      -1            -1               
   271 r.274                      -1            -1               
   272 r.275                      -1            -1               
   273 r.276                      -1            -1               
   274 r.277                      -1            -1               
   275 r.278                       0                           0 
   276 r.279                       0                           0 
   277 r.280                      -1            -1               
   278 r.281                      -1            -1               
   279 r.282                      -1            -1               
   280 r.283                      -1            -1               
   281 r.284                      -1            -1               
   282 r.285                      -5                           0 
   283 r.286                      -1                           0 
   284 r.287                      -1            -1               
   285 r.288                      -1            -1               
   286 r.289                       0                           0 
   287 r.290                       0                           0 
   288 r.291                      -1            -1               
   289 r.292                       0            -1               
   290 r.293                       0                           0 
   291 r.294                       0                           0 
   292 r.295                      -1            -1               
   293 r.296                      -1            -1               
   294 r.297                      -1                           0 
   295 r.298                      -1                           0 
   296 r.299                      -1            -1               
   297 r.300                      -1            -1               
   298 r.301                       0                           0 
   299 r.302                      -1                           0 
   300 r.303                      -1            -1               
   301 r.304                      -1            -1               
   302 r.305                       0                           0 
   303 r.306                       0                           0 
   304 r.307                      -1            -1               
   305 r.308                      -1            -1               
   306 r.309                      -1                           0 
   307 r.310                      -1                           0 
   308 r.311                      -1            -1               
   309 r.312                      -1            -1               
   310 r.313                       0                           0 
   311 r.314                      -1                           0 
   312 r.315                      -1            -1               
   313 r.316                       0                           0 
   314 r.317                       0                           0 
   315 r.318                      -1            -1               
   316 r.319                       0                           0 
   317 r.320                       0                           0 
   318 r.321                      -1            -1               
   319 r.322                       0                           0 
   320 r.323                       0                           0 
   321 r.324                      -1            -1               
   322 r.325                      -1                           0 
   323 r.326                      -1                           0 
   324 r.327                      -1            -1               
   325 r.328                       0                           0 
   326 r.329                       0                           0 
   327 r.330                      -1            -1               
   328 r.331                      -1                           0 
   329 r.332                       0                           0 
   330 r.333                      -1            -1               
   331 r.334                      -1                           0 
   332 r.335                      -1                           0 
   333 r.336                      -1            -1               
   334 r.337                       0                           0 
   335 r.338                       0                           0 
   336 r.339                      -1            -1               
   337 r.340                      -1                           0 
   338 r.341                       0                           0 
   339 r.342                      -1            -1               
   340 r.343                      -1                           0 
   341 r.344                       0                           0 
   342 r.345                      -1            -1               
   343 r.346                      -1                           0 
   344 r.347                       0                           0 
   345 r.348                      -1            -1               
   346 r.349                      -1                           0 
   347 r.350                       0                           0 
   348 r.351                      -1            -1               
   349 r.352                      -1                           0 
   350 r.353                       0                           0 
   351 r.354                      -1            -1               
   352 r.355                      -1                           0 
   353 r.356                       0                           0 
   354 r.357                      -1            -1               
   355 r.358                      -1                           0 
   356 r.359                       0                           0 
   357 r.360                      -1            -1               
   358 r.361                      -1                           0 

   No. Column name       Activity     Lower bound   Upper bound
------ ------------    ------------- ------------- -------------
     1 F            *          20480             0               
     2 m_3_4        *              0             0             1 
     3 m_4_3        *              1             0             1 
     4 m_3_6        *              0             0             1 
     5 m_6_3        *              1             0             1 
     6 m_3_7        *              0             0             1 
     7 m_7_3        *              1             0             1 
     8 m_3_9        *              0             0             1 
     9 m_9_3        *              1             0             1 
    10 m_3_10       *              1             0             1 
    11 m_10_3       *              0             0             1 
    12 m_3_1        *              0             0             1 
    13 m_1_3        *              1             1             = 
    14 m_3_2        *              0             0             1 
    15 m_2_3        *              1             0             1 
    16 m_3_8        *              0             0             1 
    17 m_8_3        *              1             0             1 
    18 m_3_5        *              1             0             1 
    19 m_5_3        *              0             0             1 
    20 m_4_6        *              0             0             1 
    21 m_6_4        *              1             0             1 
    22 m_4_7        *              0             0             1 
    23 m_7_4        *              1             0             1 
    24 m_4_9        *              1             0             1 
    25 m_9_4        *              0             0             1 
    26 m_4_10       *              1             0             1 
    27 m_10_4       *              0             0             1 
    28 m_4_1        *              0             0             1 
    29 m_1_4        *              1             0             1 
    30 m_4_2        *              0             0             1 
    31 m_2_4        *              1             1             = 
    32 m_4_8        *              0             0             1 
    33 m_8_4        *              1             0             1 
    34 m_4_5        *              1             0             1 
    35 m_5_4        *              0             0             1 
    36 m_6_7        *              0             0             1 
    37 m_7_6        *              1             0             1 
    38 m_6_9        *              1             0             1 
    39 m_9_6        *              0             0             1 
    40 m_6_10       *              1             0             1 
    41 m_10_6       *              0             0             1 
    42 m_6_1        *              0             0             1 
    43 m_1_6        *              1             1             = 
    44 m_6_2        *              0             0             1 
    45 m_2_6        *              1             0             1 
    46 m_6_8        *              0             0             1 
    47 m_8_6        *              1             0             1 
    48 m_6_5        *              1             0             1 
    49 m_5_6        *              0             0             1 
    50 m_7_9        *              1             0             1 
    51 m_9_7        *              0             0             1 
    52 m_7_10       *              1             0             1 
    53 m_10_7       *              0             0             1 
    54 m_7_1        *              0             0             1 
    55 m_1_7        *              1             1             = 
    56 m_7_2        *              0             0             1 
    57 m_2_7        *              1             0             1 
    58 m_7_8        *              1             0             1 
    59 m_8_7        *              0             0             1 
    60 m_7_5        *              1             0             1 
    61 m_5_7        *              0             0             1 
    62 m_9_10       *              1             0             1 
    63 m_10_9       *              0             0             1 
    64 m_9_1        *              0             0             1 
    65 m_1_9        *              1             1             = 
    66 m_9_2        *              0             0             1 
    67 m_2_9        *              1             1             = 
    68 m_9_8        *              0             0             1 
    69 m_8_9        *              1             1             = 
    70 m_9_5        *              1             0             1 
    71 m_5_9        *              0             0             1 
    72 m_10_1       *              0             0             1 
    73 m_1_10       *              1             1             = 
    74 m_10_2       *              0             0             1 
    75 m_2_10       *              1             0             1 
    76 m_10_8       *              0             0             1 
    77 m_8_10       *              1             0             1 
    78 m_10_5       *              0             0             1 
    79 m_5_10       *              1             1             = 
    80 m_1_2        *              0             0             1 
    81 m_2_1        *              1             0             1 
    82 m_1_8        *              1             1             = 
    83 m_8_1        *              0             0             1 
    84 m_1_5        *              1             1             = 
    85 m_5_1        *              0             0             1 
    86 m_2_8        *              1             1             = 
    87 m_8_2        *              0             0             1 
    88 m_2_5        *              1             0             1 
    89 m_5_2        *              0             0             1 
    90 m_8_5        *              1             0             1 
    91 m_5_8        *              0             0             1 
    92 s_3          *              8             0               
    93 m_3_3        *              1             1             = 
    94 s_4          *              6             0               
    95 m_4_4        *              1             1             = 
    96 s_6          *              5             0               
    97 m_6_6        *              1             1             = 
    98 s_7          *              3             0               
    99 m_7_7        *              1             1             = 
   100 s_9          *              7             0               
   101 m_9_9        *              1             1             = 
   102 s_10         *             10             0               
   103 m_10_10      *              1             1             = 
   104 s_1          *              2             0               
   105 m_1_1        *              1             1             = 
   106 s_2          *              1             0               
   107 m_2_2        *              1             1             = 
   108 s_8          *              4             0               
   109 m_8_8        *              1             1             = 
   110 s_5          *              9             0               
   111 m_5_5        *              1             1             = 
   112 y_3_3        *              1             1             = 
   113 y_4_3        *              0             0             1 
   114 y_6_3        *              0             0             1 
   115 y_7_3        *              0             0             1 
   116 y_9_3        *              0             0             1 
   117 y_10_3       *              0             0             1 
   118 y_1_3        *              1             1             = 
   119 y_2_3        *              0             0             1 
   120 y_8_3        *              0             0             1 
   121 y_5_3        *              0             0             1 
   122 y_3_4        *              0             0             1 
   123 y_4_4        *              1             1             = 
   124 y_6_4        *              0             0             1 
   125 y_7_4        *              0             0             1 
   126 y_9_4        *              0             0             1 
   127 y_10_4       *              0             0             1 
   128 y_1_4        *              1             0             1 
   129 y_2_4        *              1             1             = 
   130 y_8_4        *              1             0             1 
   131 y_5_4        *              0             0             1 
   132 y_3_6        *              0             0             1 
   133 y_4_6        *              0             0             1 
   134 y_6_6        *              1             1             = 
   135 y_7_6        *              0             0             1 
   136 y_9_6        *              0             0             1 
   137 y_10_6       *              0             0             1 
   138 y_1_6        *              1             1             = 
   139 y_2_6        *              1             0             1 
   140 y_8_6        *              1             0             1 
   141 y_5_6        *              0             0             1 
   142 y_3_7        *              0             0             1 
   143 y_4_7        *              0             0             1 
   144 y_6_7        *              0             0             1 
   145 y_7_7        *              1             1             = 
   146 y_9_7        *              0             0             1 
   147 y_10_7       *              0             0             1 
   148 y_1_7        *              1             1             = 
   149 y_2_7        *              1             0             1 
   150 y_8_7        *              0             0             1 
   151 y_5_7        *              0             0             1 
   152 y_3_9        *              0             0             1 
   153 y_4_9        *              0             0             1 
   154 y_6_9        *              0             0             1 
   155 y_7_9        *              0             0             1 
   156 y_9_9        *              1             1             = 
   157 y_10_9       *              0             0             1 
   158 y_1_9        *              1             0             1 
   159 y_2_9        *              0             0             1 
   160 y_8_9        *              1             1             = 
   161 y_5_9        *              0             0             1 
   162 y_3_10       *              0             0             1 
   163 y_4_10       *              0             0             1 
   164 y_6_10       *              0             0             1 
   165 y_7_10       *              0             0             1 
   166 y_9_10       *              0             0             1 
   167 y_10_10      *              1             1             = 
   168 y_1_10       *              0             0             1 
   169 y_2_10       *              0             0             1 
   170 y_8_10       *              0             0             1 
   171 y_5_10       *              1             1             = 
   172 y_3_1        *              0             0             1 
   173 y_4_1        *              0             0             1 
   174 y_6_1        *              0             0             1 
   175 y_7_1        *              0             0             1 
   176 y_9_1        *              0             0             1 
   177 y_10_1       *              0             0             1 
   178 y_1_1        *              1             1             = 
   179 y_2_1        *              1             0             1 
   180 y_8_1        *              0             0             1 
   181 y_5_1        *              0             0             1 
   182 y_3_2        *              0             0             1 
   183 y_4_2        *              0             0             1 
   184 y_6_2        *              0             0             1 
   185 y_7_2        *              0             0             1 
   186 y_9_2        *              0             0             1 
   187 y_10_2       *              0             0             1 
   188 y_1_2        *              0             0             1 
   189 y_2_2        *              1             1             = 
   190 y_8_2        *              0             0             1 
   191 y_5_2        *              0             0             1 
   192 y_3_8        *              0             0             1 
   193 y_4_8        *              0             0             1 
   194 y_6_8        *              0             0             1 
   195 y_7_8        *              0             0             1 
   196 y_9_8        *              0             0             1 
   197 y_10_8       *              0             0             1 
   198 y_1_8        *              1             1             = 
   199 y_2_8        *              1             1             = 
   200 y_8_8        *              1             1             = 
   201 y_5_8        *              0             0             1 
   202 y_3_5        *              0             0             1 
   203 y_4_5        *              0             0             1 
   204 y_6_5        *              0             0             1 
   205 y_7_5        *              0             0             1 
   206 y_9_5        *              0             0             1 
   207 y_10_5       *              0             0             1 
   208 y_1_5        *              1             1             = 
   209 y_2_5        *              0             0             1 
   210 y_8_5        *              0             0             1 
   211 y_5_5        *              1             1             = 

Integer feasibility conditions:

KKT.PE: max.abs.err = 0.00e+00 on row 0
        max.rel.err = 0.00e+00 on row 0
        High quality

KKT.PB: max.abs.err = 0.00e+00 on row 0
        max.rel.err = 0.00e+00 on row 0
        High quality

End of output
